(set-logic QF_LRA)
(declare-fun T1 () Real )
(declare-fun T2 () Real )
(declare-fun T3 () Real )
(declare-fun T4 () Real )
(declare-fun T5 () Real )
(declare-fun T6 () Real )
(declare-fun Z () Real )
(assert ( and 
(or ( <= ( + T1 100 ) T2 ) ( <= ( + T2 76 ) T1 ) )
(or ( <= ( + T1 137 )  ( + T2 76 ) ) ( <= ( + T2 133 )( + T1 100 ) ) )
(or ( <= ( + T1 174 )  ( + T2 133 ) ) ( <= ( + T2 215 )( + T1 137 ) ) )
(or ( <= ( + T1 197 )  ( + T2 215 ) ) ( <= ( + T2 259 )( + T1 174 ) ) )
(or ( <= ( + T1 100 ) T3 ) ( <= ( + T3 82 ) T1 ) )
(or ( <= ( + T1 137 )  ( + T3 82 ) ) ( <= ( + T3 180 )( + T1 100 ) ) )
(or ( <= ( + T1 174 )  ( + T3 180 ) ) ( <= ( + T3 269 )( + T1 137 ) ) )
(or ( <= ( + T1 197 )  ( + T3 269 ) ) ( <= ( + T3 314 )( + T1 174 ) ) )
(or ( <= ( + T1 100 ) T4 ) ( <= ( + T4 79 ) T1 ) )
(or ( <= ( + T1 137 )  ( + T4 79 ) ) ( <= ( + T4 96 )( + T1 100 ) ) )
(or ( <= ( + T1 174 )  ( + T4 96 ) ) ( <= ( + T4 137 )( + T1 137 ) ) )
(or ( <= ( + T1 197 )  ( + T4 137 ) ) ( <= ( + T4 176 )( + T1 174 ) ) )
(or ( <= ( + T1 100 ) T5 ) ( <= ( + T5 100 ) T1 ) )
(or ( <= ( + T1 137 )  ( + T5 100 ) ) ( <= ( + T5 161 )( + T1 100 ) ) )
(or ( <= ( + T1 174 )  ( + T5 161 ) ) ( <= ( + T5 206 )( + T1 137 ) ) )
(or ( <= ( + T1 197 )  ( + T5 206 ) ) ( <= ( + T5 255 )( + T1 174 ) ) )
(or ( <= ( + T1 100 ) T6 ) ( <= ( + T6 55 ) T1 ) )
(or ( <= ( + T1 137 )  ( + T6 55 ) ) ( <= ( + T6 123 )( + T1 100 ) ) )
(or ( <= ( + T1 174 )  ( + T6 123 ) ) ( <= ( + T6 222 )( + T1 137 ) ) )
(or ( <= ( + T1 197 )  ( + T6 222 ) ) ( <= ( + T6 234 )( + T1 174 ) ) )
(or ( <= ( + T2 76 ) T3 ) ( <= ( + T3 82 ) T2 ) )
(or ( <= ( + T2 133 )  ( + T3 82 ) ) ( <= ( + T3 180 )( + T2 76 ) ) )
(or ( <= ( + T2 215 )  ( + T3 180 ) ) ( <= ( + T3 269 )( + T2 133 ) ) )
(or ( <= ( + T2 259 )  ( + T3 269 ) ) ( <= ( + T3 314 )( + T2 215 ) ) )
(or ( <= ( + T2 76 ) T4 ) ( <= ( + T4 79 ) T2 ) )
(or ( <= ( + T2 133 )  ( + T4 79 ) ) ( <= ( + T4 96 )( + T2 76 ) ) )
(or ( <= ( + T2 215 )  ( + T4 96 ) ) ( <= ( + T4 137 )( + T2 133 ) ) )
(or ( <= ( + T2 259 )  ( + T4 137 ) ) ( <= ( + T4 176 )( + T2 215 ) ) )
(or ( <= ( + T2 76 ) T5 ) ( <= ( + T5 100 ) T2 ) )
(or ( <= ( + T2 133 )  ( + T5 100 ) ) ( <= ( + T5 161 )( + T2 76 ) ) )
(or ( <= ( + T2 215 )  ( + T5 161 ) ) ( <= ( + T5 206 )( + T2 133 ) ) )
(or ( <= ( + T2 259 )  ( + T5 206 ) ) ( <= ( + T5 255 )( + T2 215 ) ) )
(or ( <= ( + T2 76 ) T6 ) ( <= ( + T6 55 ) T2 ) )
(or ( <= ( + T2 133 )  ( + T6 55 ) ) ( <= ( + T6 123 )( + T2 76 ) ) )
(or ( <= ( + T2 215 )  ( + T6 123 ) ) ( <= ( + T6 222 )( + T2 133 ) ) )
(or ( <= ( + T2 259 )  ( + T6 222 ) ) ( <= ( + T6 234 )( + T2 215 ) ) )
(or ( <= ( + T3 82 ) T4 ) ( <= ( + T4 79 ) T3 ) )
(or ( <= ( + T3 180 )  ( + T4 79 ) ) ( <= ( + T4 96 )( + T3 82 ) ) )
(or ( <= ( + T3 269 )  ( + T4 96 ) ) ( <= ( + T4 137 )( + T3 180 ) ) )
(or ( <= ( + T3 314 )  ( + T4 137 ) ) ( <= ( + T4 176 )( + T3 269 ) ) )
(or ( <= ( + T3 82 ) T5 ) ( <= ( + T5 100 ) T3 ) )
(or ( <= ( + T3 180 )  ( + T5 100 ) ) ( <= ( + T5 161 )( + T3 82 ) ) )
(or ( <= ( + T3 269 )  ( + T5 161 ) ) ( <= ( + T5 206 )( + T3 180 ) ) )
(or ( <= ( + T3 314 )  ( + T5 206 ) ) ( <= ( + T5 255 )( + T3 269 ) ) )
(or ( <= ( + T3 82 ) T6 ) ( <= ( + T6 55 ) T3 ) )
(or ( <= ( + T3 180 )  ( + T6 55 ) ) ( <= ( + T6 123 )( + T3 82 ) ) )
(or ( <= ( + T3 269 )  ( + T6 123 ) ) ( <= ( + T6 222 )( + T3 180 ) ) )
(or ( <= ( + T3 314 )  ( + T6 222 ) ) ( <= ( + T6 234 )( + T3 269 ) ) )
(or ( <= ( + T4 79 ) T5 ) ( <= ( + T5 100 ) T4 ) )
(or ( <= ( + T4 96 )  ( + T5 100 ) ) ( <= ( + T5 161 )( + T4 79 ) ) )
(or ( <= ( + T4 137 )  ( + T5 161 ) ) ( <= ( + T5 206 )( + T4 96 ) ) )
(or ( <= ( + T4 176 )  ( + T5 206 ) ) ( <= ( + T5 255 )( + T4 137 ) ) )
(or ( <= ( + T4 79 ) T6 ) ( <= ( + T6 55 ) T4 ) )
(or ( <= ( + T4 96 )  ( + T6 55 ) ) ( <= ( + T6 123 )( + T4 79 ) ) )
(or ( <= ( + T4 137 )  ( + T6 123 ) ) ( <= ( + T6 222 )( + T4 96 ) ) )
(or ( <= ( + T4 176 )  ( + T6 222 ) ) ( <= ( + T6 234 )( + T4 137 ) ) )
(or ( <= ( + T5 100 ) T6 ) ( <= ( + T6 55 ) T5 ) )
(or ( <= ( + T5 161 )  ( + T6 55 ) ) ( <= ( + T6 123 )( + T5 100 ) ) )
(or ( <= ( + T5 206 )  ( + T6 123 ) ) ( <= ( + T6 222 )( + T5 161 ) ) )
(or ( <= ( + T5 255 )  ( + T6 222 ) ) ( <= ( + T6 234 )( + T5 206 ) ) )
( <= ( + T1 197 ) Z)
( <= ( + T2 259 ) Z)
( <= ( + T3 314 ) Z)
( <= ( + T4 176 ) Z)
( <= ( + T5 255 ) Z)
( <= ( + T6 234 ) Z)
( >= T1 0 )
( >= T2 0 )
( >= T3 0 )
( >= T4 0 )
( >= T5 0 )
( >= T6 0 )
) )
(minimize Z)
(check-sat)